DATASET = "thpack7";
INSTANCE = "020";

WIDTH = 233;
HEIGHT = 220;
LENGTH = 587;

NO_OF_SHAPES = 20;
size = [|
  97,77,66 |
  81,69,69 |
  109,53,24 |
  98,33,20 |
  86,56,34 |
  76,50,35 |
  109,42,22 |
  82,69,42 |
  58,43,31 |
  99,80,48 |
  89,68,39 |
  74,53,40 |
  97,43,32 |
  112,70,51 |
  73,29,20 |
  74,72,68 |
  70,64,58 |
  90,62,38 |
  76,69,58 |
  113,65,53 |
|];

verticality = [|
  1,1,1 |
  1,1,1 |
  0,0,1 |
  0,1,1 |
  0,1,1 |
  0,1,1 |
  0,1,1 |
  1,1,1 |
  1,1,1 |
  0,1,1 |
  0,1,1 |
  1,1,1 |
  0,1,1 |
  0,1,1 |
  0,1,1 |
  1,1,1 |
  1,1,1 |
  0,1,1 |
  1,1,1 |
  0,1,1 |
|];

box_count = [
  6,
  5,
  12,
  8,
  8,
  6,
  3,
  9,
  6,
  5,
  4,
  7,
  7,
  8,
  3,
  4,
  6,
  8,
  10,
  5,
];
